NAME          
ROWS
 N  ROWOBJ
 L  ROW00001
 L  ROW00002
 L  ROW00003
 E  ROW00004
 E  ROW00005
 E  ROW00006
 E  ROW00007
 L  ROW00008
 L  ROW00009
 L  ROW00010
 L  ROW00011
 L  ROW00012
 L  ROW00013
 E  ROW00014
 E  ROW00015
 E  ROW00016
 E  ROW00017
 E  ROW00018
 L  ROW00019
 L  ROW00020
 L  ROW00021
 L  ROW00022
 L  ROW00023
 L  ROW00024
 L  ROW00025
 L  ROW00026
 L  ROW00027
 L  ROW00028
 L  ROW00029
 L  ROW00030
 L  ROW00031
 L  ROW00032
 L  ROW00033
 L  ROW00034
 L  ROW00035
 E  ROW00036
 E  ROW00037
 E  ROW00038
 E  ROW00039
 E  ROW00040
 L  ROW00041
 L  ROW00042
 L  ROW00043
 L  ROW00044
 L  ROW00045
 L  ROW00046
 L  ROW00047
 L  ROW00048
 L  ROW00049
 L  ROW00050
 L  ROW00051
 L  ROW00052
 L  ROW00053
 L  ROW00054
 L  ROW00055
 L  ROW00056
 L  ROW00057
 E  ROW00058
 E  ROW00059
 E  ROW00060
 E  ROW00061
 E  ROW00062
 L  ROW00063
 L  ROW00064
 L  ROW00065
 L  ROW00066
 L  ROW00067
 L  ROW00068
 L  ROW00069
 L  ROW00070
 L  ROW00071
 L  ROW00072
 L  ROW00073
 L  ROW00074
 L  ROW00075
 L  ROW00076
 L  ROW00077
 L  ROW00078
 L  ROW00079
 E  ROW00080
 E  ROW00081
 E  ROW00082
 E  ROW00083
 E  ROW00084
 L  ROW00085
 L  ROW00086
 L  ROW00087
 L  ROW00088
 L  ROW00089
 L  ROW00090
 L  ROW00091
 L  ROW00092
 L  ROW00093
 L  ROW00094
 L  ROW00095
 L  ROW00096
 L  ROW00097
 L  ROW00098
 L  ROW00099
 L  ROW00100
 L  ROW00101
 E  ROW00102
 E  ROW00103
 E  ROW00104
 E  ROW00105
 E  ROW00106
 L  ROW00107
 L  ROW00108
 L  ROW00109
 L  ROW00110
 L  ROW00111
 L  ROW00112
 L  ROW00113
 L  ROW00114
 L  ROW00115
 L  ROW00116
 L  ROW00117
 L  ROW00118
 L  ROW00119
 L  ROW00120
 L  ROW00121
 L  ROW00122
 L  ROW00123
 E  ROW00124
 E  ROW00125
 E  ROW00126
 E  ROW00127
 E  ROW00128
 L  ROW00129
 L  ROW00130
 L  ROW00131
 L  ROW00132
 L  ROW00133
 L  ROW00134
 L  ROW00135
 L  ROW00136
 L  ROW00137
 L  ROW00138
 L  ROW00139
 L  ROW00140
 L  ROW00141
 L  ROW00142
 L  ROW00143
 L  ROW00144
 L  ROW00145
 E  ROW00146
 E  ROW00147
 E  ROW00148
 E  ROW00149
 E  ROW00150
 L  ROW00151
 L  ROW00152
 L  ROW00153
 L  ROW00154
 L  ROW00155
 L  ROW00156
 L  ROW00157
 L  ROW00158
 L  ROW00159
 L  ROW00160
 L  ROW00161
 L  ROW00162
 L  ROW00163
 L  ROW00164
 L  ROW00165
 L  ROW00166
 L  ROW00167
 E  ROW00168
 E  ROW00169
 E  ROW00170
 E  ROW00171
 E  ROW00172
 L  ROW00173
 L  ROW00174
 L  ROW00175
 L  ROW00176
 L  ROW00177
 L  ROW00178
 L  ROW00179
 L  ROW00180
 L  ROW00181
 L  ROW00182
 L  ROW00183
 L  ROW00184
 L  ROW00185
 L  ROW00186
 L  ROW00187
 L  ROW00188
 L  ROW00189
COLUMNS
    COL00001  ROW00001  2.   R0000001            1.
    COL00001  ROW00005           -1.
    COL00002  ROW00001  1.   R0000001            2.
    COL00002  ROW00006           -1.
    COL00003  ROW00001  1.5   R0000001           1.5
    COL00003  ROW00007           -1.
    COL00004  ROWOBJ    -1.   R0000003            1.
    COL00004  ROW00014  1.1   R0000035           1.1
    COL00004  ROW00058  1.1   R0000079           1.1
    COL00004  ROW00102  1.1   R0000123           1.1
    COL00004  ROW00146  1.1   R0000167           1.1
    COL00005  ROW00004  -1.   R0000012            1.
    COL00005  ROW00015  1.   R0000036            1.
    COL00005  ROW00059  1.   R0000080            1.
    COL00005  ROW00103  1.   R0000124            1.
    COL00005  ROW00147  1.   R0000168            1.
    COL00006  ROW00005  1.   R0000007           -1.
    COL00006  ROW00016  -1.   R0000037           -1.
    COL00006  ROW00060  -1.   R0000081           -1.
    COL00006  ROW00104  -1.   R0000125           -1.
    COL00006  ROW00148  -1.   R0000169           -1.
    COL00007  ROW00006  1.   R0000008           -1.
    COL00007  ROW00017  -1.   R0000038           -1.
    COL00007  ROW00061  -1.   R0000082           -1.
    COL00007  ROW00105  -1.   R0000126           -1.
    COL00007  ROW00149  -1.   R0000170           -1.
    COL00008  ROW00007  1.   R0000009           -1.
    COL00008  ROW00018  -1.   R0000039           -1.
    COL00008  ROW00062  -1.   R0000083           -1.
    COL00008  ROW00106  -1.   R0000127           -1.
    COL00008  ROW00150  -1.   R0000171           -1.
    COL00009  ROW00008  1.   R0000010           -1.
    COL00010  ROW00009  1.   R0000011           -1.
    COL00011  ROW00010  1.   R0000012           -1.
    COL00012  ROW00011  2.   R0000011            1.
    COL00012  ROW00016  -1.   R0000037           -1.
    COL00012  ROW00060  -1.   R0000081           -1.
    COL00012  ROW00104  -1.   R0000125           -1.
    COL00012  ROW00148  -1.   R0000169           -1.
    COL00013  ROW00011  1.   R0000011            2.
    COL00013  ROW00017  -1.   R0000038           -1.
    COL00013  ROW00061  -1.   R0000082           -1.
    COL00013  ROW00105  -1.   R0000126           -1.
    COL00013  ROW00149  -1.   R0000170           -1.
    COL00014  ROW00011  1.5   R0000011           1.5
    COL00014  ROW00018  -1.   R0000039           -1.
    COL00014  ROW00062  -1.   R0000083           -1.
    COL00014  ROW00106  -1.   R0000127           -1.
    COL00014  ROW00150  -1.   R0000171           -1.
    COL00015  ROW00014  -1.   R0000014            1.
    COL00015  ROW00025           1.1
    COL00016  ROW00015  -1.   R0000023            1.
    COL00016  ROW00026            1.
    COL00017  ROW00016  1.   R0000018           -1.
    COL00017  ROW00027           -1.
    COL00018  ROW00017  1.   R0000019           -1.
    COL00018  ROW00028           -1.
    COL00019  ROW00018  1.   R0000020           -1.
    COL00019  ROW00029           -1.
    COL00020  ROW00019  1.   R0000021           -1.
    COL00021  ROW00020  1.   R0000022           -1.
    COL00022  ROW00021  1.   R0000023           -1.
    COL00023  ROW00022  2.   R0000022            1.
    COL00023  ROW00027           -1.
    COL00024  ROW00022  1.   R0000022            2.
    COL00024  ROW00028           -1.
    COL00025  ROW00022  1.5   R0000022           1.5
    COL00025  ROW00029           -1.
    COL00026  ROW00025  -1.   R0000025            1.
    COL00027  ROW00026  -1.   R0000034            1.
    COL00028  ROW00027  1.   R0000029           -1.
    COL00029  ROW00028  1.   R0000030           -1.
    COL00030  ROW00029  1.   R0000031           -1.
    COL00031  ROW00030  1.   R0000032           -1.
    COL00032  ROW00031  1.   R0000033           -1.
    COL00033  ROW00032  1.   R0000034           -1.
    COL00034  ROW00033  2.   R0000033            1.
    COL00035  ROW00033  1.   R0000033            2.
    COL00036  ROW00033  1.5   R0000033           1.5
    COL00037  ROW00036  -1.   R0000036            1.
    COL00037  ROW00047           1.1
    COL00038  ROW00037  -1.   R0000045            1.
    COL00038  ROW00048            1.
    COL00039  ROW00038  1.   R0000040           -1.
    COL00039  ROW00049           -1.
    COL00040  ROW00039  1.   R0000041           -1.
    COL00040  ROW00050           -1.
    COL00041  ROW00040  1.   R0000042           -1.
    COL00041  ROW00051           -1.
    COL00042  ROW00041  1.   R0000043           -1.
    COL00043  ROW00042  1.   R0000044           -1.
    COL00044  ROW00043  1.   R0000045           -1.
    COL00045  ROW00044  2.   R0000044            1.
    COL00045  ROW00049           -1.
    COL00046  ROW00044  1.   R0000044            2.
    COL00046  ROW00050           -1.
    COL00047  ROW00044  1.5   R0000044           1.5
    COL00047  ROW00051           -1.
    COL00048  ROW00047  -1.   R0000047            1.
    COL00049  ROW00048  -1.   R0000056            1.
    COL00050  ROW00049  1.   R0000051           -1.
    COL00051  ROW00050  1.   R0000052           -1.
    COL00052  ROW00051  1.   R0000053           -1.
    COL00053  ROW00052  1.   R0000054           -1.
    COL00054  ROW00053  1.   R0000055           -1.
    COL00055  ROW00054  1.   R0000056           -1.
    COL00056  ROW00055  2.   R0000055            1.
    COL00057  ROW00055  1.   R0000055            2.
    COL00058  ROW00055  1.5   R0000055           1.5
    COL00059  ROW00058  -1.   R0000058            1.
    COL00059  ROW00069           1.1
    COL00060  ROW00059  -1.   R0000067            1.
    COL00060  ROW00070            1.
    COL00061  ROW00060  1.   R0000062           -1.
    COL00061  ROW00071           -1.
    COL00062  ROW00061  1.   R0000063           -1.
    COL00062  ROW00072           -1.
    COL00063  ROW00062  1.   R0000064           -1.
    COL00063  ROW00073           -1.
    COL00064  ROW00063  1.   R0000065           -1.
    COL00065  ROW00064  1.   R0000066           -1.
    COL00066  ROW00065  1.   R0000067           -1.
    COL00067  ROW00066  2.   R0000066            1.
    COL00067  ROW00071           -1.
    COL00068  ROW00066  1.   R0000066            2.
    COL00068  ROW00072           -1.
    COL00069  ROW00066  1.5   R0000066           1.5
    COL00069  ROW00073           -1.
    COL00070  ROW00069  -1.   R0000069            1.
    COL00071  ROW00070  -1.   R0000078            1.
    COL00072  ROW00071  1.   R0000073           -1.
    COL00073  ROW00072  1.   R0000074           -1.
    COL00074  ROW00073  1.   R0000075           -1.
    COL00075  ROW00074  1.   R0000076           -1.
    COL00076  ROW00075  1.   R0000077           -1.
    COL00077  ROW00076  1.   R0000078           -1.
    COL00078  ROW00077  2.   R0000077            1.
    COL00079  ROW00077  1.   R0000077            2.
    COL00080  ROW00077  1.5   R0000077           1.5
    COL00081  ROW00080  -1.   R0000080            1.
    COL00081  ROW00091           1.1
    COL00082  ROW00081  -1.   R0000089            1.
    COL00082  ROW00092            1.
    COL00083  ROW00082  1.   R0000084           -1.
    COL00083  ROW00093           -1.
    COL00084  ROW00083  1.   R0000085           -1.
    COL00084  ROW00094           -1.
    COL00085  ROW00084  1.   R0000086           -1.
    COL00085  ROW00095           -1.
    COL00086  ROW00085  1.   R0000087           -1.
    COL00087  ROW00086  1.   R0000088           -1.
    COL00088  ROW00087  1.   R0000089           -1.
    COL00089  ROW00088  2.   R0000088            1.
    COL00089  ROW00093           -1.
    COL00090  ROW00088  1.   R0000088            2.
    COL00090  ROW00094           -1.
    COL00091  ROW00088  1.5   R0000088           1.5
    COL00091  ROW00095           -1.
    COL00092  ROW00091  -1.   R0000091            1.
    COL00093  ROW00092  -1.   R0000100            1.
    COL00094  ROW00093  1.   R0000095           -1.
    COL00095  ROW00094  1.   R0000096           -1.
    COL00096  ROW00095  1.   R0000097           -1.
    COL00097  ROW00096  1.   R0000098           -1.
    COL00098  ROW00097  1.   R0000099           -1.
    COL00099  ROW00098  1.   R0000100           -1.
    COL00100  ROW00099  2.   R0000099            1.
    COL00101  ROW00099  1.   R0000099            2.
    COL00102  ROW00099  1.5   R0000099           1.5
    COL00103  ROW00102  -1.   R0000102            1.
    COL00103  ROW00113           1.1
    COL00104  ROW00103  -1.   R0000111            1.
    COL00104  ROW00114            1.
    COL00105  ROW00104  1.   R0000106           -1.
    COL00105  ROW00115           -1.
    COL00106  ROW00105  1.   R0000107           -1.
    COL00106  ROW00116           -1.
    COL00107  ROW00106  1.   R0000108           -1.
    COL00107  ROW00117           -1.
    COL00108  ROW00107  1.   R0000109           -1.
    COL00109  ROW00108  1.   R0000110           -1.
    COL00110  ROW00109  1.   R0000111           -1.
    COL00111  ROW00110  2.   R0000110            1.
    COL00111  ROW00115           -1.
    COL00112  ROW00110  1.   R0000110            2.
    COL00112  ROW00116           -1.
    COL00113  ROW00110  1.5   R0000110           1.5
    COL00113  ROW00117           -1.
    COL00114  ROW00113  -1.   R0000113            1.
    COL00115  ROW00114  -1.   R0000122            1.
    COL00116  ROW00115  1.   R0000117           -1.
    COL00117  ROW00116  1.   R0000118           -1.
    COL00118  ROW00117  1.   R0000119           -1.
    COL00119  ROW00118  1.   R0000120           -1.
    COL00120  ROW00119  1.   R0000121           -1.
    COL00121  ROW00120  1.   R0000122           -1.
    COL00122  ROW00121  2.   R0000121            1.
    COL00123  ROW00121  1.   R0000121            2.
    COL00124  ROW00121  1.5   R0000121           1.5
    COL00125  ROW00124  -1.   R0000124            1.
    COL00125  ROW00135           1.1
    COL00126  ROW00125  -1.   R0000133            1.
    COL00126  ROW00136            1.
    COL00127  ROW00126  1.   R0000128           -1.
    COL00127  ROW00137           -1.
    COL00128  ROW00127  1.   R0000129           -1.
    COL00128  ROW00138           -1.
    COL00129  ROW00128  1.   R0000130           -1.
    COL00129  ROW00139           -1.
    COL00130  ROW00129  1.   R0000131           -1.
    COL00131  ROW00130  1.   R0000132           -1.
    COL00132  ROW00131  1.   R0000133           -1.
    COL00133  ROW00132  2.   R0000132            1.
    COL00133  ROW00137           -1.
    COL00134  ROW00132  1.   R0000132            2.
    COL00134  ROW00138           -1.
    COL00135  ROW00132  1.5   R0000132           1.5
    COL00135  ROW00139           -1.
    COL00136  ROW00135  -1.   R0000135            1.
    COL00137  ROW00136  -1.   R0000144            1.
    COL00138  ROW00137  1.   R0000139           -1.
    COL00139  ROW00138  1.   R0000140           -1.
    COL00140  ROW00139  1.   R0000141           -1.
    COL00141  ROW00140  1.   R0000142           -1.
    COL00142  ROW00141  1.   R0000143           -1.
    COL00143  ROW00142  1.   R0000144           -1.
    COL00144  ROW00143  2.   R0000143            1.
    COL00145  ROW00143  1.   R0000143            2.
    COL00146  ROW00143  1.5   R0000143           1.5
    COL00147  ROW00146  -1.   R0000146            1.
    COL00147  ROW00157           1.1
    COL00148  ROW00147  -1.   R0000155            1.
    COL00148  ROW00158            1.
    COL00149  ROW00148  1.   R0000150           -1.
    COL00149  ROW00159           -1.
    COL00150  ROW00149  1.   R0000151           -1.
    COL00150  ROW00160           -1.
    COL00151  ROW00150  1.   R0000152           -1.
    COL00151  ROW00161           -1.
    COL00152  ROW00151  1.   R0000153           -1.
    COL00153  ROW00152  1.   R0000154           -1.
    COL00154  ROW00153  1.   R0000155           -1.
    COL00155  ROW00154  2.   R0000154            1.
    COL00155  ROW00159           -1.
    COL00156  ROW00154  1.   R0000154            2.
    COL00156  ROW00160           -1.
    COL00157  ROW00154  1.5   R0000154           1.5
    COL00157  ROW00161           -1.
    COL00158  ROW00157  -1.   R0000157            1.
    COL00159  ROW00158  -1.   R0000166            1.
    COL00160  ROW00159  1.   R0000161           -1.
    COL00161  ROW00160  1.   R0000162           -1.
    COL00162  ROW00161  1.   R0000163           -1.
    COL00163  ROW00162  1.   R0000164           -1.
    COL00164  ROW00163  1.   R0000165           -1.
    COL00165  ROW00164  1.   R0000166           -1.
    COL00166  ROW00165  2.   R0000165            1.
    COL00167  ROW00165  1.   R0000165            2.
    COL00168  ROW00165  1.5   R0000165           1.5
    COL00169  ROW00168  -1.   R0000168            1.
    COL00169  ROW00179           1.1
    COL00170  ROW00169  -1.   R0000177            1.
    COL00170  ROW00180            1.
    COL00171  ROW00170  1.   R0000172           -1.
    COL00171  ROW00181           -1.
    COL00172  ROW00171  1.   R0000173           -1.
    COL00172  ROW00182           -1.
    COL00173  ROW00172  1.   R0000174           -1.
    COL00173  ROW00183           -1.
    COL00174  ROW00173  1.   R0000175           -1.
    COL00175  ROW00174  1.   R0000176           -1.
    COL00176  ROW00175  1.   R0000177           -1.
    COL00177  ROW00176  2.   R0000176            1.
    COL00177  ROW00181           -1.
    COL00178  ROW00176  1.   R0000176            2.
    COL00178  ROW00182           -1.
    COL00179  ROW00176  1.5   R0000176           1.5
    COL00179  ROW00183           -1.
    COL00180  ROW00179  -1.   R0000179            1.
    COL00181  ROW00180  -1.   R0000188            1.
    COL00182  ROW00181  1.   R0000183           -1.
    COL00183  ROW00182  1.   R0000184           -1.
    COL00184  ROW00183  1.   R0000185           -1.
    COL00185  ROW00184  1.   R0000186           -1.
    COL00186  ROW00185  1.   R0000187           -1.
    COL00187  ROW00186  1.   R0000188           -1.
    COL00188  ROW00187  2.   R0000187            1.
    COL00189  ROW00187  1.   R0000187            2.
    COL00190  ROW00187  1.5   R0000187           1.5
RHS
ENDATA
